4 15 18 10 0 8 11 14 16 6 9 19 12 17 1 5 7 13 2 3  
4 15 18 10 0 8 11 14 16 6 9 19 12 17 1 5 7 13 2 3  
4 15 18 10 0 8 11 14 16 6 9 19 12 17 1 5 7 13 2 3  
4 15 18 10 0 8 11 14 16 6 9 19 12 17 1 5 7 13 2 3  
4 15 18 10 0 8 11 14 16 6 9 19 12 17 1 5 2 7 3 13  
4 15 18 14 11 10 6 7 8 5 9 19 12 17 1 0 2 13 16 3  
4 15 18 10 0 8 11 14 16 6 9 19 12 17 1 5 7 13 2 3  
4 10 18 15 0 8 14 6 11 7 9 19 12 5 2 17 1 13 16 3  
4 15 18 10 0 8 11 14 16 6 9 19 12 17 1 5 2 7 3 13  
4 10 18 15 0 8 11 19 6 7 9 14 12 17 1 5 13 2 16 3  
4 15 18 10 0 8 11 14 16 6 9 19 12 17 1 5 7 13 2 3  
4 15 18 10 0 8 11 14 16 6 9 19 12 17 1 5 7 13 2 3  
4 10 18 15 0 8 11 14 16 6 17 12 9 1 5 2 7 13 3 19  
4 10 18 15 0 8 11 14 16 6 17 12 9 1 5 7 2 13 3 19  
4 15 18 14 11 10 6 7 8 5 9 19 12 17 1 0 2 13 16 3  
4 15 18 14 11 6 10 7 8 5 9 13 12 17 1 0 2 19 16 3  
